p edge 35 64
e 4 20
e 19 21
e 2 20
e 8 18
e 34 35
e 24 29
e 24 32
e 24 33
e 29 32
e 29 33
e 32 33
e 10 14
e 6 15
e 10 15
e 10 18
e 15 18
e 21 28
e 17 19
e 26 30
e 1 5
e 1 12
e 1 17
e 5 12
e 5 17
e 12 17
e 7 8
e 17 28
e 19 28
e 12 20
e 13 16
e 13 17
e 13 19
e 16 17
e 16 19
e 5 20
e 9 33
e 31 34
e 3 25
e 3 33
e 25 33
e 11 22
e 11 34
e 22 34
e 9 23
e 9 31
e 9 35
e 23 31
e 23 35
e 31 35
e 11 27
e 11 35
e 22 27
e 22 35
e 27 34
e 27 35
e 27 31
e 25 30
e 28 31
e 28 33
e 31 33
e 13 27
e 13 33
e 27 33
e 27 30
